N = 576;
M = 708;
Edge_Start = [1, 1, 2, 3, 3, 5, 5, 7, 7, 8, 9, 9, 10, 11, 11, 12, 13, 13, 14, 15, 15, 16, 17, 17, 18, 19, 20, 21, 21, 22, 23, 23, 24, 25, 26, 27, 27, 28, 29, 29, 30, 31, 31, 32, 33, 34, 35, 35, 36, 37, 38, 39, 39, 40, 41, 43, 43, 44, 45, 45, 46, 47, 48, 49, 49, 50, 51, 52, 53, 53, 54, 55, 55, 56, 57, 58, 59, 59, 60, 61, 62, 63, 64, 65, 66, 67, 68, 68, 69, 70, 70, 71, 72, 73, 74, 75, 76, 76, 77, 78, 78, 80, 80, 81, 82, 82, 83, 84, 84, 85, 86, 87, 88, 88, 89, 91, 92, 92, 93, 94, 96, 96, 97, 98, 98, 99, 100, 100, 102, 103, 104, 105, 105, 106, 107, 108, 109, 109, 110, 111, 111, 112, 113, 113, 114, 115, 116, 117, 117, 118, 119, 120, 121, 121, 122, 123, 123, 124, 125, 125, 126, 127, 127, 128, 129, 129, 130, 131, 131, 132, 133, 134, 135, 136, 136, 137, 138, 138, 139, 140, 140, 141, 142, 142, 143, 144, 144, 145, 146, 146, 147, 148, 150, 150, 151, 152, 152, 153, 154, 154, 155, 156, 156, 157, 158, 159, 160, 161, 162, 162, 163, 164, 165, 166, 166, 167, 168, 168, 170, 172, 173, 173, 174, 175, 176, 177, 177, 179, 180, 181, 181, 182, 184, 185, 186, 187, 187, 188, 189, 189, 190, 191, 191, 192, 193, 194, 196, 197, 197, 198, 199, 199, 200, 201, 201, 202, 203, 204, 204, 205, 206, 206, 207, 208, 208, 209, 210, 211, 212, 212, 213, 214, 215, 216, 216, 217, 218, 219, 220, 220, 221, 222, 222, 224, 224, 225, 226, 227, 228, 228, 229, 230, 230, 231, 232, 234, 234, 235, 236, 236, 238, 239, 239, 240, 242, 243, 243, 244, 245, 245, 246, 247, 248, 249, 250, 251, 251, 252, 253, 253, 254, 255, 255, 257, 257, 258, 259, 259, 260, 261, 261, 262, 263, 263, 264, 265, 266, 267, 267, 268, 269, 269, 270, 272, 274, 275, 276, 276, 277, 278, 278, 279, 280, 280, 281, 282, 283, 284, 284, 285, 286, 286, 287, 288, 289, 290, 291, 292, 293, 294, 295, 296, 296, 298, 298, 300, 301, 302, 302, 303, 304, 304, 306, 307, 307, 308, 309, 309, 310, 311, 311, 312, 313, 313, 315, 316, 317, 318, 319, 319, 321, 321, 322, 323, 324, 325, 325, 327, 327, 328, 329, 331, 331, 332, 333, 334, 335, 335, 337, 338, 339, 340, 340, 342, 342, 343, 344, 345, 346, 346, 347, 348, 348, 349, 350, 350, 352, 352, 354, 354, 355, 356, 356, 358, 358, 360, 360, 361, 362, 363, 364, 364, 365, 366, 366, 367, 368, 368, 370, 370, 371, 372, 374, 375, 375, 376, 377, 377, 378, 379, 379, 381, 381, 382, 383, 384, 385, 387, 387, 388, 389, 390, 391, 391, 392, 393, 393, 394, 395, 396, 397, 397, 398, 399, 399, 400, 401, 401, 402, 403, 403, 404, 405, 405, 406, 407, 408, 408, 409, 410, 410, 411, 412, 413, 414, 414, 415, 416, 416, 417, 418, 418, 419, 421, 422, 422, 423, 424, 424, 426, 426, 427, 428, 428, 429, 430, 431, 432, 432, 433, 434, 434, 435, 436, 436, 437, 438, 438, 439, 440, 440, 442, 443, 443, 444, 445, 445, 446, 447, 447, 448, 450, 451, 451, 452, 453, 453, 454, 455, 455, 456, 457, 457, 459, 459, 460, 461, 461, 462, 463, 464, 465, 465, 466, 468, 469, 470, 471, 471, 472, 473, 473, 474, 475, 476, 476, 478, 479, 480, 481, 482, 483, 484, 485, 486, 486, 487, 488, 488, 490, 490, 491, 492, 493, 494, 494, 495, 496, 496, 497, 498, 498, 499, 500, 500, 501, 502, 502, 503, 504, 505, 506, 506, 507, 508, 508, 510, 511, 511, 512, 513, 513, 515, 516, 517, 518, 519, 519, 520, 521, 521, 522, 523, 523, 524, 525, 525, 527, 529, 529, 530, 531, 531, 532, 533, 533, 534, 535, 535, 536, 537, 537, 538, 539, 539, 540, 541, 541, 542, 543, 544, 545, 546, 547, 548, 549, 550, 551, 552, 553, 554, 555, 556, 558, 559, 560, 561, 562, 563, 564, 566, 567, 568, 569, 570, 571, 573, 574];
Edge_End = [2, 34, 3, 4, 36, 6, 38, 8, 40, 9, 10, 42, 11, 12, 44, 13, 14, 46, 15, 16, 48, 17, 18, 50, 19, 52, 21, 22, 54, 23, 24, 56, 25, 26, 27, 28, 60, 29, 30, 62, 31, 32, 64, 33, 66, 35, 36, 69, 37, 71, 39, 40, 73, 41, 75, 44, 77, 45, 46, 79, 47, 48, 49, 50, 83, 51, 52, 53, 54, 87, 55, 56, 89, 57, 91, 59, 60, 93, 61, 62, 63, 97, 65, 66, 67, 101, 69, 102, 70, 71, 104, 72, 106, 74, 108, 76, 77, 110, 78, 79, 112, 81, 114, 82, 83, 116, 84, 85, 118, 86, 87, 88, 89, 122, 90, 92, 93, 126, 94, 95, 97, 130, 98, 99, 132, 100, 101, 134, 103, 104, 105, 106, 139, 107, 141, 109, 110, 143, 111, 112, 145, 113, 114, 147, 115, 116, 117, 118, 151, 119, 120, 121, 122, 155, 123, 124, 157, 125, 126, 159, 127, 128, 161, 129, 130, 163, 131, 132, 165, 133, 134, 135, 169, 137, 170, 138, 139, 172, 140, 141, 174, 142, 143, 176, 144, 145, 178, 146, 147, 180, 148, 149, 151, 184, 152, 153, 186, 154, 155, 188, 156, 157, 190, 158, 159, 160, 161, 162, 163, 196, 164, 198, 166, 167, 200, 168, 169, 202, 171, 173, 174, 207, 175, 209, 177, 178, 211, 180, 181, 182, 215, 183, 185, 219, 187, 188, 221, 189, 190, 223, 191, 192, 225, 193, 194, 195, 197, 198, 231, 199, 200, 233, 201, 202, 235, 203, 237, 205, 238, 206, 207, 240, 208, 209, 242, 210, 244, 212, 213, 246, 214, 215, 216, 217, 250, 218, 219, 220, 221, 254, 222, 223, 256, 225, 258, 226, 260, 228, 229, 262, 230, 231, 264, 232, 266, 235, 268, 236, 237, 270, 239, 240, 273, 241, 243, 244, 277, 245, 246, 279, 247, 248, 249, 250, 251, 252, 285, 253, 254, 287, 255, 256, 289, 258, 291, 259, 260, 293, 261, 262, 295, 263, 264, 297, 265, 266, 267, 268, 301, 269, 270, 303, 271, 273, 275, 276, 277, 310, 278, 279, 312, 280, 281, 314, 282, 316, 284, 285, 318, 286, 287, 320, 288, 289, 290, 291, 292, 293, 294, 328, 296, 297, 330, 299, 332, 334, 302, 303, 336, 304, 305, 338, 307, 308, 341, 309, 310, 343, 311, 312, 345, 313, 314, 347, 349, 317, 318, 319, 320, 353, 322, 355, 323, 324, 325, 326, 359, 328, 361, 329, 330, 332, 365, 333, 367, 335, 336, 369, 338, 339, 373, 341, 374, 343, 376, 344, 345, 346, 347, 380, 348, 349, 382, 350, 351, 384, 353, 386, 355, 388, 356, 357, 390, 359, 392, 361, 394, 362, 396, 364, 365, 398, 366, 367, 400, 368, 369, 402, 371, 404, 372, 373, 375, 376, 409, 377, 378, 411, 379, 380, 413, 382, 415, 383, 417, 385, 419, 388, 421, 389, 390, 391, 392, 425, 393, 394, 427, 395, 396, 397, 398, 431, 399, 400, 433, 401, 402, 435, 403, 404, 437, 405, 406, 439, 407, 441, 409, 442, 410, 411, 444, 412, 413, 414, 415, 448, 416, 417, 450, 418, 419, 452, 420, 422, 423, 456, 424, 425, 458, 427, 460, 428, 429, 462, 430, 431, 432, 433, 466, 434, 435, 468, 436, 437, 470, 438, 439, 472, 440, 441, 474, 443, 444, 477, 445, 446, 479, 447, 448, 481, 449, 451, 452, 485, 453, 454, 487, 455, 456, 489, 457, 458, 491, 460, 493, 461, 462, 495, 463, 464, 465, 466, 499, 467, 469, 503, 471, 472, 505, 473, 474, 507, 475, 509, 477, 510, 512, 480, 481, 482, 516, 484, 485, 486, 487, 520, 488, 489, 522, 491, 524, 492, 493, 494, 495, 528, 496, 497, 530, 498, 499, 532, 500, 501, 534, 502, 503, 536, 504, 505, 506, 507, 540, 508, 509, 542, 511, 512, 544, 513, 514, 546, 548, 517, 550, 519, 520, 552, 521, 522, 554, 523, 524, 556, 525, 526, 558, 560, 530, 562, 531, 532, 564, 533, 534, 566, 535, 536, 568, 537, 538, 570, 539, 540, 572, 541, 542, 574, 543, 576, 545, 546, 547, 548, 549, 550, 551, 552, 553, 554, 555, 556, 557, 559, 560, 561, 562, 563, 564, 565, 567, 568, 569, 570, 571, 572, 574, 575];
L = [3, 12, 16, 4, 8, 11, 17, 13, 17, 2, 17, 15, 15, 16, 17, 4, 13, 19, 16, 1, 17, 8, 4, 7, 11, 7, 15, 12, 8, 15, 6, 12, 1, 16, 7, 7, 1, 6, 18, 6, 13, 11, 12, 5, 3, 1, 13, 16, 16, 19, 14, 12, 12, 1, 6, 11, 5, 2, 15, 12, 1, 11, 2, 14, 3, 4, 9, 13, 13, 4, 15, 1, 10, 1, 11, 6, 5, 9, 11, 10, 14, 1, 18, 6, 9, 14, 1, 6, 15, 1, 13, 12, 7, 3, 13, 8, 7, 19, 14, 1, 6, 10, 8, 4, 6, 5, 16, 19, 1, 6, 9, 14, 16, 11, 8, 15, 11, 19, 1, 6, 16, 12, 3, 10, 13, 16, 9, 7, 16, 12, 12, 7, 5, 16, 11, 6, 18, 16, 12, 18, 10, 12, 2, 2, 15, 4, 10, 17, 10, 1, 3, 3, 10, 9, 15, 11, 5, 6, 6, 10, 11, 10, 10, 16, 16, 12, 11, 18, 14, 11, 1, 14, 5, 11, 2, 12, 5, 12, 7, 8, 1, 15, 6, 17, 9, 17, 15, 1, 5, 3, 19, 6, 1, 15, 9, 16, 6, 1, 18, 13, 16, 7, 2, 10, 6, 11, 8, 15, 15, 18, 4, 11, 1, 10, 3, 16, 3, 8, 1, 4, 14, 10, 11, 4, 18, 1, 17, 8, 14, 6, 16, 1, 6, 12, 11, 16, 8, 14, 9, 18, 4, 15, 7, 8, 7, 3, 16, 17, 17, 7, 11, 7, 17, 13, 17, 10, 19, 14, 19, 9, 16, 9, 15, 1, 13, 8, 17, 6, 13, 2, 9, 17, 15, 3, 10, 13, 5, 7, 19, 8, 1, 15, 8, 14, 3, 16, 19, 4, 17, 11, 17, 1, 1, 3, 13, 7, 19, 12, 6, 15, 3, 9, 13, 11, 1, 8, 11, 15, 5, 8, 8, 9, 6, 17, 1, 15, 6, 18, 14, 6, 19, 15, 4, 10, 15, 8, 18, 8, 1, 12, 3, 17, 2, 15, 13, 13, 8, 15, 13, 15, 17, 9, 13, 14, 7, 3, 1, 3, 7, 4, 2, 1, 9, 15, 15, 11, 8, 4, 12, 5, 8, 9, 18, 18, 4, 6, 9, 13, 10, 4, 15, 4, 18, 9, 10, 14, 18, 6, 3, 12, 4, 15, 1, 11, 11, 16, 18, 5, 18, 4, 18, 9, 4, 18, 14, 15, 8, 3, 15, 8, 9, 5, 4, 15, 2, 1, 8, 4, 9, 4, 4, 18, 2, 3, 2, 13, 3, 10, 8, 10, 19, 2, 19, 15, 17, 12, 16, 14, 4, 2, 1, 1, 16, 13, 11, 3, 11, 15, 5, 6, 3, 14, 1, 18, 14, 8, 13, 10, 6, 17, 16, 18, 12, 11, 16, 3, 6, 14, 13, 9, 18, 15, 15, 14, 10, 6, 11, 6, 5, 5, 1, 9, 13, 12, 4, 12, 11, 2, 9, 15, 18, 1, 17, 15, 19, 6, 17, 14, 7, 9, 6, 19, 14, 14, 8, 16, 16, 7, 9, 10, 11, 1, 8, 6, 7, 13, 2, 6, 7, 11, 2, 15, 13, 1, 12, 13, 18, 11, 9, 14, 4, 10, 12, 3, 1, 12, 13, 3, 11, 14, 8, 14, 11, 3, 1, 14, 3, 11, 12, 5, 18, 3, 5, 14, 4, 12, 14, 12, 11, 18, 3, 17, 7, 6, 3, 8, 11, 18, 11, 19, 17, 15, 1, 1, 18, 1, 1, 8, 17, 2, 2, 4, 15, 10, 17, 5, 1, 5, 10, 6, 8, 4, 8, 13, 18, 13, 12, 1, 12, 8, 5, 11, 3, 5, 10, 16, 11, 4, 16, 1, 14, 17, 9, 1, 13, 11, 3, 14, 9, 4, 5, 4, 16, 9, 9, 8, 9, 3, 11, 17, 1, 11, 14, 7, 19, 12, 11, 12, 2, 15, 18, 5, 15, 15, 5, 7, 12, 15, 7, 8, 7, 9, 8, 1, 1, 14, 14, 7, 2, 7, 12, 1, 3, 12, 12, 10, 16, 16, 17, 17, 12, 8, 4, 12, 3, 6, 9, 9, 8, 2, 17, 7, 1, 10, 6, 9, 10, 6, 13, 18, 5, 8, 2, 5, 15, 4, 3, 2, 18, 19, 14, 8, 17, 3, 16, 13, 16, 13, 8, 14, 8, 18, 10, 1, 4, 9, 16, 4];
T = [1, 13, 13, 2, 14, 11, 15, 14, 16, 4, 26, 9, 6, 6, 27, 7, 10, 21, 18, 3, 15, 9, 3, 2, 13, 3, 18, 9, 1, 14, 1, 13, 1, 16, 13, 3, 9, 2, 27, 4, 8, 6, 18, 7, 2, 1, 13, 12, 17, 19, 1, 8, 6, 1, 1, 12, 5, 1, 17, 16, 1, 15, 6, 12, 7, 1, 7, 22, 13, 12, 9, 8, 10, 1, 18, 11, 2, 9, 11, 8, 13, 1, 12, 6, 1, 17, 7, 8, 13, 1, 8, 16, 3, 4, 16, 9, 10, 16, 12, 1, 10, 10, 15, 1, 4, 10, 19, 16, 1, 5, 7, 11, 8, 12, 2, 19, 11, 27, 1, 13, 6, 19, 7, 10, 17, 11, 5, 1, 17, 8, 10, 5, 2, 14, 8, 1, 29, 13, 18, 21, 10, 10, 1, 5, 14, 1, 14, 6, 6, 1, 3, 3, 10, 8, 11, 1, 1, 1, 9, 6, 12, 1, 8, 6, 19, 19, 9, 16, 13, 17, 1, 20, 5, 5, 1, 10, 1, 14, 5, 16, 8, 5, 8, 18, 9, 27, 14, 7, 1, 4, 21, 1, 1, 10, 13, 7, 9, 1, 22, 15, 16, 5, 2, 11, 1, 13, 13, 6, 19, 15, 4, 7, 1, 13, 3, 21, 7, 9, 1, 4, 9, 4, 16, 9, 17, 8, 16, 10, 2, 1, 16, 3, 12, 6, 8, 13, 9, 7, 15, 16, 6, 17, 6, 6, 1, 1, 19, 14, 12, 4, 2, 1, 20, 11, 10, 18, 24, 20, 26, 6, 9, 9, 15, 1, 16, 1, 20, 2, 10, 1, 10, 15, 8, 7, 20, 12, 13, 3, 20, 4, 3, 18, 2, 17, 1, 10, 18, 3, 17, 9, 18, 1, 1, 8, 7, 1, 18, 11, 2, 16, 10, 12, 21, 15, 1, 13, 8, 12, 4, 10, 10, 5, 1, 13, 1, 15, 7, 12, 17, 5, 16, 24, 8, 5, 19, 3, 26, 1, 1, 14, 6, 16, 1, 7, 5, 12, 7, 12, 18, 11, 18, 13, 11, 11, 1, 1, 2, 5, 7, 7, 1, 1, 5, 9, 21, 5, 9, 7, 14, 9, 13, 13, 18, 17, 3, 11, 1, 10, 9, 4, 15, 1, 21, 11, 11, 10, 8, 5, 7, 8, 9, 23, 1, 13, 4, 14, 21, 6, 6, 1, 23, 6, 1, 25, 14, 1, 7, 1, 14, 10, 4, 1, 8, 17, 1, 1, 16, 4, 11, 2, 1, 8, 1, 7, 3, 7, 1, 19, 19, 17, 20, 4, 11, 22, 15, 15, 15, 11, 1, 1, 3, 1, 17, 8, 10, 2, 5, 19, 6, 6, 2, 12, 5, 23, 12, 9, 11, 3, 8, 15, 16, 11, 17, 7, 13, 1, 12, 13, 9, 11, 19, 20, 8, 14, 13, 19, 14, 1, 2, 5, 3, 8, 17, 16, 9, 10, 9, 6, 1, 7, 12, 3, 13, 5, 18, 3, 19, 13, 7, 17, 6, 15, 16, 17, 4, 9, 12, 2, 9, 15, 10, 1, 1, 2, 7, 19, 1, 10, 6, 10, 1, 11, 8, 1, 4, 13, 22, 17, 12, 16, 5, 8, 7, 2, 9, 14, 10, 1, 8, 22, 1, 19, 14, 3, 4, 15, 8, 11, 15, 7, 18, 1, 2, 5, 5, 10, 19, 10, 16, 16, 1, 14, 4, 2, 1, 5, 9, 14, 20, 18, 12, 16, 5, 6, 26, 1, 5, 6, 13, 4, 1, 1, 13, 12, 19, 4, 1, 9, 7, 1, 12, 2, 18, 10, 13, 20, 14, 4, 12, 10, 1, 9, 3, 12, 6, 28, 18, 16, 25, 10, 20, 14, 1, 2, 13, 9, 1, 18, 10, 1, 11, 7, 18, 4, 4, 11, 11, 2, 10, 21, 1, 7, 12, 13, 26, 9, 19, 15, 10, 18, 8, 7, 15, 10, 1, 10, 15, 10, 9, 10, 3, 1, 1, 1, 1, 19, 14, 11, 1, 3, 17, 2, 9, 10, 5, 15, 10, 15, 14, 26, 3, 10, 12, 18, 2, 6, 7, 7, 12, 3, 24, 15, 11, 3, 2, 7, 14, 9, 4, 19, 11, 7, 1, 7, 11, 2, 2, 1, 17, 13, 11, 3, 20, 3, 18, 16, 18, 12, 6, 15, 14, 16, 2, 4, 1, 11, 14, 1];
Lower_Bound = [0, 1, 14, 16, 149, 160, 157, 171, 175, 201, 205, 211, 217, 218, 200, 202, 193, 196, 202, 251, 233, 242, 246, 247, 248, 264, 275, 278, 280, 307, 315, 321, 324, 13, 14, 27, 44, 134, 133, 141, 142, 184, 166, 178, 179, 196, 197, 185, 179, 191, 192, 199, 219, 232, 225, 233, 234, 275, 264, 266, 277, 284, 281, 333, 328, 322, 321, 33, 26, 39, 40, 56, 127, 123, 143, 151, 161, 162, 163, 158, 168, 168, 172, 179, 195, 200, 207, 207, 215, 217, 252, 244, 255, 256, 269, 274, 280, 287, 297, 299, 304, 41, 55, 47, 57, 59, 73, 107, 106, 135, 139, 152, 142, 143, 157, 158, 172, 178, 179, 182, 185, 195, 206, 207, 208, 217, 229, 230, 236, 255, 264, 280, 297, 298, 318, 75, 70, 60, 59, 64, 80, 85, 93, 102, 129, 136, 137, 158, 159, 179, 178, 191, 198, 199, 193, 209, 207, 215, 214, 227, 237, 243, 255, 259, 276, 275, 288, 309, 316, 76, 77, 74, 78, 72, 88, 103, 120, 116, 150, 140, 142, 143, 146, 189, 201, 200, 208, 214, 221, 211, 217, 234, 240, 241, 242, 258, 277, 266, 270, 272, 292, 303, 321, 117, 97, 91, 82, 97, 97, 98, 136, 135, 145, 155, 158, 166, 173, 185, 198, 201, 217, 220, 237, 240, 223, 233, 278, 275, 292, 283, 284, 292, 271, 303, 302, 313, 315, 122, 112, 100, 115, 113, 114, 118, 130, 134, 144, 149, 150, 163, 164, 179, 191, 205, 221, 222, 246, 241, 244, 251, 252, 266, 281, 282, 287, 299, 306, 318, 329, 329, 340, 144, 133, 126, 125, 124, 122, 129, 136, 137, 142, 163, 187, 178, 171, 180, 193, 211, 228, 231, 242, 243, 245, 254, 258, 273, 274, 354, 365, 357, 324, 332, 337, 345, 354, 178, 177, 164, 150, 129, 131, 130, 136, 137, 179, 168, 169, 176, 177, 191, 280, 284, 292, 309, 310, 311, 262, 258, 260, 261, 335, 343, 350, 347, 340, 339, 387, 368, 385, 185, 181, 178, 156, 169, 154, 162, 161, 164, 165, 173, 183, 192, 187, 282, 279, 277, 289, 294, 317, 282, 273, 276, 333, 318, 334, 351, 353, 354, 359, 394, 403, 422, 405, 196, 204, 193, 184, 170, 168, 163, 189, 181, 197, 175, 185, 211, 270, 276, 283, 272, 269, 282, 296, 293, 291, 284, 301, 307, 323, 340, 349, 361, 368, 383, 384, 385, 392, 202, 201, 195, 185, 179, 171, 172, 176, 198, 206, 199, 194, 201, 269, 267, 273, 263, 264, 303, 315, 302, 316, 320, 316, 324, 327, 334, 351, 353, 358, 368, 386, 388, 404, 212, 200, 196, 197, 202, 205, 185, 197, 210, 212, 207, 233, 234, 240, 253, 254, 255, 300, 302, 298, 299, 306, 307, 319, 321, 331, 335, 348, 358, 372, 376, 386, 387, 390, 208, 202, 279, 206, 222, 223, 233, 233, 219, 218, 220, 233, 234, 244, 255, 256, 263, 281, 285, 289, 300, 302, 323, 324, 336, 349, 358, 368, 378, 384, 392, 395, 403, 402, 236, 251, 261, 271, 274, 269, 253, 254, 262, 243, 229, 230, 233, 235, 244, 249, 264, 295, 296, 324, 310, 313, 323, 341, 343, 350, 357, 360, 384, 382, 385, 392, 406, 410, 260, 271, 272, 273, 268, 257, 255, 255, 254, 260, 247, 248, 245, 265, 259, 262, 280, 296, 314, 326, 325, 340, 347, 361, 362, 364, 368, 369, 380, 415, 401, 402, 429];
Upper_Bound = [1, 2, 15, 17, 150, 161, 158, 172, 176, 202, 206, 212, 218, 219, 201, 203, 194, 197, 203, 252, 234, 243, 247, 248, 249, 265, 276, 279, 281, 308, 316, 322, 325, 14, 15, 28, 45, 135, 134, 142, 143, 185, 167, 179, 180, 197, 198, 186, 180, 192, 193, 200, 220, 233, 226, 234, 235, 276, 265, 267, 278, 285, 282, 334, 329, 323, 322, 34, 27, 40, 41, 57, 128, 124, 144, 152, 162, 163, 164, 159, 169, 169, 173, 180, 196, 201, 208, 208, 216, 218, 253, 245, 256, 257, 270, 275, 281, 288, 298, 300, 305, 42, 56, 48, 58, 60, 74, 108, 107, 136, 140, 153, 143, 144, 158, 159, 173, 179, 180, 183, 186, 196, 207, 208, 209, 218, 230, 231, 237, 256, 265, 281, 298, 299, 319, 76, 71, 61, 60, 65, 81, 86, 94, 103, 130, 137, 138, 159, 160, 180, 179, 192, 199, 200, 194, 210, 208, 216, 215, 228, 238, 244, 256, 260, 277, 276, 289, 310, 317, 77, 78, 75, 79, 73, 89, 104, 121, 117, 151, 141, 143, 144, 147, 190, 202, 201, 209, 215, 222, 212, 218, 235, 241, 242, 243, 259, 278, 267, 271, 273, 293, 304, 322, 118, 98, 92, 83, 98, 98, 99, 137, 136, 146, 156, 159, 167, 174, 186, 199, 202, 218, 221, 238, 241, 224, 234, 279, 276, 293, 284, 285, 293, 272, 304, 303, 314, 316, 123, 113, 101, 116, 114, 115, 119, 131, 135, 145, 150, 151, 164, 165, 180, 192, 206, 222, 223, 247, 242, 245, 252, 253, 267, 282, 283, 288, 300, 307, 319, 330, 330, 341, 145, 134, 127, 126, 125, 123, 130, 137, 138, 143, 164, 188, 179, 172, 181, 194, 212, 229, 232, 243, 244, 246, 255, 259, 274, 275, 355, 366, 358, 325, 333, 338, 346, 355, 179, 178, 165, 151, 130, 132, 131, 137, 138, 180, 169, 170, 177, 178, 192, 281, 285, 293, 310, 311, 312, 263, 259, 261, 262, 336, 344, 351, 348, 341, 340, 388, 369, 386, 186, 182, 179, 157, 170, 155, 163, 162, 165, 166, 174, 184, 193, 188, 283, 280, 278, 290, 295, 318, 283, 274, 277, 334, 319, 335, 352, 354, 355, 360, 395, 404, 423, 406, 197, 205, 194, 185, 171, 169, 164, 190, 182, 198, 176, 186, 212, 271, 277, 284, 273, 270, 283, 297, 294, 292, 285, 302, 308, 324, 341, 350, 362, 369, 384, 385, 386, 393, 203, 202, 196, 186, 180, 172, 173, 177, 199, 207, 200, 195, 202, 270, 268, 274, 264, 265, 304, 316, 303, 317, 321, 317, 325, 328, 335, 352, 354, 359, 369, 387, 389, 405, 213, 201, 197, 198, 203, 206, 186, 198, 211, 213, 208, 234, 235, 241, 254, 255, 256, 301, 303, 299, 300, 307, 308, 320, 322, 332, 336, 349, 359, 373, 377, 387, 388, 391, 209, 203, 280, 207, 223, 224, 234, 234, 220, 219, 221, 234, 235, 245, 256, 257, 264, 282, 286, 290, 301, 303, 324, 325, 337, 350, 359, 369, 379, 385, 393, 396, 404, 403, 237, 252, 262, 272, 275, 270, 254, 255, 263, 244, 230, 231, 234, 236, 245, 250, 265, 296, 297, 325, 311, 314, 324, 342, 344, 351, 358, 361, 385, 383, 386, 393, 407, 411, 261, 272, 273, 274, 269, 258, 256, 256, 255, 261, 248, 249, 246, 266, 260, 263, 281, 297, 315, 327, 326, 341, 348, 362, 363, 365, 369, 370, 381, 416, 402, 403, 430];
Start = 1;
End = 576;
Time = 431;
